sat
(model
	(define-fun choice1 () (_ BitVec 2) (_ bv1 2)) ; 0x1
	(define-fun choice2 () (_ BitVec 2) (_ bv2 2)) ; 0x2
	(define-fun choice3 () (_ BitVec 2) (_ bv0 2)) ; 0x0
	(define-fun row_value1 () (_ BitVec 16) (_ bv400 16)) ; 0x190
	(define-fun row_value2 () (_ BitVec 16) (_ bv350 16)) ; 0x15e
	(define-fun row_value3 () (_ BitVec 16) (_ bv200 16)) ; 0xc8
	(define-fun final_sum () (_ BitVec 16) (_ bv950 16)) ; 0x3b6
)
